
50
127589

5137 4148
3880 2878
9435 8448
5441 4438
6296 5288
6519 5513
4370 3390
7402 6395
9991 9001
1718 720
6625 5610
3656 2641
7542 6557
7217 6234
1468 458
2127 1130
6293 5284
9593 8587
8997 7977
9254 8239
2391 1371
4523 3506
6773 5770
4661 3665
3293 2307
10235 9221
7353 6353
4980 3981
5753 4761
7989 6996
8593 7593
8802 7796
4337 3345
10663 9677
8635 7631
3724 2706
2723 1720
5322 4302
3593 2606
9788 8776
1096 94
9161 8180
2606 1619
9128 8119
5341 4328
2303 1318
10862 9854
5206 4190
10773 9784
4238 3225
